c "110687.clq"
p edge 141 548
e 1 5
e 1 6
e 1 7
e 1 10
e 1 11
e 1 14
e 1 15
e 1 25
e 1 28
e 1 45
e 1 59
e 1 61
e 1 109
e 1 124
e 1 128
e 2 5
e 2 9
e 2 38
e 2 52
e 2 56
e 2 70
e 2 79
e 2 86
e 2 99
e 2 110
e 2 126
e 2 134
e 3 5
e 3 6
e 3 7
e 3 18
e 3 38
e 3 43
e 3 57
e 3 66
e 3 84
e 3 120
e 3 122
e 3 133
e 4 5
e 4 6
e 4 8
e 4 9
e 4 10
e 4 12
e 4 14
e 4 15
e 4 16
e 4 18
e 4 20
e 4 22
e 4 24
e 4 31
e 4 33
e 4 60
e 4 73
e 4 76
e 4 84
e 4 94
e 4 119
e 4 138
e 4 140
e 5 6
e 5 7
e 5 8
e 5 9
e 5 11
e 5 12
e 5 15
e 5 16
e 5 17
e 5 19
e 5 21
e 5 22
e 5 23
e 5 24
e 5 29
e 5 30
e 5 31
e 5 36
e 5 40
e 5 54
e 5 63
e 5 64
e 5 68
e 5 81
e 5 86
e 5 87
e 5 93
e 5 102
e 5 109
e 5 139
e 6 7
e 6 8
e 6 12
e 6 19
e 6 20
e 6 21
e 6 27
e 6 32
e 6 34
e 6 35
e 6 36
e 6 37
e 6 43
e 6 44
e 6 45
e 6 75
e 6 78
e 6 80
e 6 81
e 6 86
e 6 135
e 7 8
e 7 9
e 7 10
e 7 11
e 7 12
e 7 14
e 7 15
e 7 20
e 7 32
e 7 34
e 7 37
e 7 43
e 7 85
e 7 91
e 7 115
e 7 116
e 7 133
e 8 10
e 8 13
e 8 14
e 8 18
e 8 19
e 8 23
e 8 24
e 8 26
e 8 29
e 8 32
e 8 40
e 8 42
e 8 48
e 8 50
e 8 54
e 8 58
e 8 60
e 8 75
e 8 76
e 8 77
e 8 82
e 8 125
e 8 127
e 8 134
e 9 11
e 9 18
e 9 21
e 9 23
e 9 26
e 9 27
e 9 28
e 9 38
e 9 40
e 9 46
e 9 49
e 9 52
e 9 68
e 9 69
e 9 74
e 9 85
e 9 103
e 9 106
e 10 13
e 10 22
e 10 25
e 10 28
e 10 34
e 10 36
e 10 55
e 10 58
e 10 63
e 10 67
e 10 84
e 10 97
e 10 106
e 10 111
e 10 117
e 10 118
e 10 121
e 10 123
e 10 130
e 10 137
e 10 140
e 11 13
e 11 17
e 11 23
e 11 35
e 11 46
e 11 58
e 11 59
e 11 72
e 11 80
e 11 112
e 11 135
e 12 13
e 12 24
e 12 31
e 12 34
e 12 41
e 12 45
e 12 49
e 12 65
e 12 77
e 12 79
e 12 94
e 12 97
e 12 102
e 12 126
e 12 128
e 12 133
e 12 138
e 12 139
e 13 22
e 13 35
e 13 43
e 13 48
e 13 53
e 13 61
e 13 65
e 13 69
e 13 81
e 13 95
e 13 111
e 13 114
e 13 124
e 13 140
e 14 16
e 14 17
e 14 25
e 14 27
e 14 30
e 14 61
e 14 65
e 14 92
e 15 16
e 15 17
e 15 19
e 15 35
e 15 41
e 15 67
e 15 80
e 15 96
e 15 103
e 15 108
e 15 128
e 16 20
e 16 26
e 16 29
e 16 39
e 16 42
e 16 50
e 16 52
e 16 54
e 16 69
e 16 87
e 16 117
e 16 129
e 16 131
e 16 134
e 16 141
e 17 37
e 17 50
e 17 62
e 17 78
e 18 36
e 18 44
e 18 78
e 18 96
e 18 121
e 18 127
e 19 21
e 19 27
e 19 30
e 19 33
e 19 55
e 19 59
e 19 69
e 19 70
e 19 71
e 19 72
e 19 83
e 19 98
e 19 113
e 19 119
e 19 131
e 20 44
e 20 46
e 20 49
e 20 57
e 20 61
e 20 64
e 20 102
e 21 28
e 21 55
e 21 56
e 21 63
e 21 101
e 21 105
e 22 25
e 22 39
e 22 45
e 22 68
e 22 92
e 22 107
e 22 113
e 22 117
e 22 120
e 23 33
e 23 54
e 23 58
e 23 60
e 23 124
e 23 125
e 24 47
e 24 100
e 24 132
e 24 137
e 25 26
e 25 29
e 25 38
e 25 41
e 25 42
e 25 53
e 25 62
e 25 71
e 25 77
e 25 90
e 25 93
e 26 30
e 26 32
e 26 105
e 26 110
e 26 126
e 27 95
e 27 105
e 28 31
e 28 44
e 28 49
e 28 56
e 28 62
e 28 90
e 28 91
e 28 99
e 28 120
e 28 139
e 29 141
e 30 39
e 30 42
e 30 47
e 30 48
e 30 53
e 30 57
e 30 74
e 30 118
e 30 130
e 31 65
e 31 73
e 31 89
e 31 90
e 31 114
e 32 33
e 32 71
e 32 110
e 32 116
e 32 133
e 33 51
e 33 83
e 34 40
e 34 47
e 35 39
e 35 79
e 36 37
e 36 55
e 36 135
e 37 59
e 37 121
e 38 47
e 38 95
e 38 100
e 38 101
e 38 105
e 39 46
e 39 52
e 39 60
e 39 64
e 39 79
e 39 84
e 39 94
e 39 121
e 39 122
e 39 125
e 40 41
e 40 48
e 40 51
e 40 53
e 40 62
e 40 66
e 40 92
e 40 98
e 40 99
e 40 104
e 40 116
e 40 119
e 40 139
e 40 141
e 41 95
e 41 96
e 41 107
e 42 51
e 42 57
e 42 73
e 42 83
e 42 88
e 42 96
e 43 74
e 43 85
e 43 92
e 43 104
e 43 112
e 44 127
e 45 64
e 45 109
e 45 123
e 46 75
e 46 112
e 46 115
e 47 50
e 47 71
e 47 131
e 48 56
e 48 100
e 49 51
e 49 87
e 49 89
e 49 93
e 49 101
e 49 107
e 50 66
e 50 81
e 50 103
e 51 73
e 51 127
e 51 138
e 52 70
e 53 63
e 53 72
e 53 82
e 53 98
e 53 136
e 55 88
e 55 91
e 55 99
e 55 100
e 55 129
e 56 66
e 56 122
e 57 67
e 57 83
e 57 88
e 57 111
e 57 122
e 57 123
e 57 126
e 57 128
e 58 80
e 58 115
e 58 124
e 58 129
e 60 108
e 60 116
e 61 67
e 61 101
e 61 136
e 62 78
e 62 106
e 62 123
e 63 112
e 64 70
e 64 111
e 64 136
e 65 68
e 65 108
e 66 77
e 66 98
e 66 103
e 66 131
e 67 74
e 67 91
e 67 104
e 67 106
e 67 108
e 69 76
e 69 87
e 70 72
e 70 75
e 71 97
e 72 76
e 72 110
e 72 135
e 72 138
e 73 85
e 74 88
e 78 82
e 78 90
e 78 107
e 78 113
e 78 114
e 78 130
e 80 82
e 82 89
e 82 137
e 83 89
e 84 86
e 84 132
e 86 102
e 88 93
e 88 118
e 88 137
e 91 97
e 91 113
e 92 132
e 93 94
e 95 119
e 96 130
e 97 118
e 97 140
e 98 104
e 98 109
e 98 129
e 100 117
e 103 115
e 107 136
e 108 120
e 112 114
e 113 134
e 117 125
e 120 132
e 124 141
